(set-logic HORN)
(declare-fun inv ((_ BitVec 64) (_ BitVec 64) (_ BitVec 64) (_ BitVec 64) (_ BitVec 64) (_ BitVec 64) (_ BitVec 64) ) Bool)
(assert (forall ((i (_ BitVec 64)) (j (_ BitVec 64)) (x (_ BitVec 64)) (y (_ BitVec 64)) (z1 (_ BitVec 64)) (z2 (_ BitVec 64)) (z3 (_ BitVec 64))) 
       (=> ( and ( = i x ) ( = j y ) ) (inv i j x y z1 z2 z3))))
(assert (forall ((i (_ BitVec 64)) (j (_ BitVec 64)) (x (_ BitVec 64)) (y (_ BitVec 64)) (z1 (_ BitVec 64)) (z2 (_ BitVec 64)) (z3 (_ BitVec 64)) (i! (_ BitVec 64)) (j! (_ BitVec 64)) (x! (_ BitVec 64)) (y! (_ BitVec 64)) (z1! (_ BitVec 64)) (z2! (_ BitVec 64)) (z3! (_ BitVec 64))) 
       (=> (and (inv i j x y z1 z2 z3) ( and ( = i! i ) ( = j! j ) ( not ( = x (_ bv0 64) ) ) ( = x! ( bvsub x (_ bv1 64) ) ) ( = y! ( bvsub y (_ bv1 64) ) ) )) (inv i! j! x! y! z1! z2! z3!))))
(assert (forall ((i (_ BitVec 64)) (j (_ BitVec 64)) (x (_ BitVec 64)) (y (_ BitVec 64)) (z1 (_ BitVec 64)) (z2 (_ BitVec 64)) (z3 (_ BitVec 64))) 
       (=> (inv i j x y z1 z2 z3) ( or ( not ( = x (_ bv0 64) ) ) ( not ( = i j ) ) ( = y (_ bv0 64) ) ))))
(check-sat)
